
Gurobi 9.5.2 (mac64[arm]) logging started Mon May  1 23:03:28 2023

Set parameter LogFile to value "Java/output/special_iterative/scenario_seed_2_nJob_50_machineCount_2/mip_increment_2/log.txt"
Gurobi Optimizer version 9.5.2 build v9.5.2rc0 (mac64[arm])
Thread count: 8 physical cores, 8 logical processors, using up to 8 threads
Optimize a model with 1542 rows, 11468 columns and 82499 nonzeros
Model fingerprint: 0x5868a249
Variable types: 0 continuous, 11468 integer (11468 binary)
Coefficient statistics:
  Matrix range     [1e+00, 3e+02]
  Objective range  [2e+01, 5e+06]
  Bounds range     [1e+00, 1e+00]
  RHS range        [1e+00, 1e+00]
Found heuristic solution: objective 1.370034e+07
Presolve removed 64 rows and 942 columns
Presolve time: 0.10s
Presolved: 1478 rows, 10526 columns, 75138 nonzeros
Variable types: 0 continuous, 10526 integer (10522 binary)
Found heuristic solution: objective 1.213669e+07

Root relaxation: objective 1.180961e+04, 1276 iterations, 0.04 seconds (0.07 work units)

    Nodes    |    Current Node    |     Objective Bounds      |     Work
 Expl Unexpl |  Obj  Depth IntInf | Incumbent    BestBd   Gap | It/Node Time

     0     0 11809.6117    0   62 1.2137e+07 11809.6117   100%     -    0s
H    0     0                    1428864.0000 11809.6117  99.2%     -    0s
H    0     0                    1314128.0000 11809.6117  99.1%     -    0s
H    0     0                    14224.000000 11816.5333  16.9%     -    0s
H    0     0                    13552.000000 11816.5333  12.8%     -    0s
     0     0 11816.5333    0  110 13552.0000 11816.5333  12.8%     -    0s
H    0     0                    12192.000000 11816.5333  3.08%     -    0s
H    0     0                    12000.000000 11816.5333  1.53%     -    0s
     0     0 11816.5333    0  107 12000.0000 11816.5333  1.53%     -    0s
H    0     0                    11984.000000 11816.5333  1.40%     -    0s
     0     0 11824.0000    0   16 11984.0000 11824.0000  1.34%     -    0s
     0     0 11824.0000    0   64 11984.0000 11824.0000  1.34%     -    0s
H    0     0                    11888.000000 11824.0000  0.54%     -    0s
     0     0 11824.0000    0   65 11888.0000 11824.0000  0.54%     -    0s
     0     0 11824.0000    0   47 11888.0000 11824.0000  0.54%     -    0s
     0     0 11824.0000    0   42 11888.0000 11824.0000  0.54%     -    0s
H    0     0                    11856.000000 11824.0000  0.27%     -    0s
     0     0 11824.0000    0   29 11856.0000 11824.0000  0.27%     -    0s
     0     0 11824.0000    0    6 11856.0000 11824.0000  0.27%     -    0s
     0     0 11824.0000    0   29 11856.0000 11824.0000  0.27%     -    0s
     0     0 11824.0000    0    6 11856.0000 11824.0000  0.27%     -    0s
H    0     0                    11824.000000 11824.0000  0.00%     -    0s
     0     0 11824.0000    0    6 11824.0000 11824.0000  0.00%     -    0s

Cutting planes:
  Gomory: 21
  Lift-and-project: 1
  Cover: 13
  Clique: 36
  MIR: 8
  StrongCG: 4
  GUB cover: 23
  Zero half: 6
  RLT: 10
  Relax-and-lift: 3

Explored 1 nodes (9123 simplex iterations) in 0.88 seconds (1.22 work units)
Thread count was 8 (of 8 available processors)

Solution count 10: 11824 11856 11888 ... 1.42886e+06

Optimal solution found (tolerance 1.00e-04)
Best objective 1.182400000000e+04, best bound 1.182400000000e+04, gap 0.0000%

Gurobi 9.5.2 (mac64[arm]) logging started Mon May  1 23:03:29 2023

Set parameter LogFile to value "Java/output/special_iterative/scenario_seed_2_nJob_50_machineCount_2/mip_increment_2/log.txt"
Gurobi Optimizer version 9.5.2 build v9.5.2rc0 (mac64[arm])
Thread count: 8 physical cores, 8 logical processors, using up to 8 threads
Optimize a model with 1550 rows, 9363 columns and 64309 nonzeros
Model fingerprint: 0xe914dbec
Variable types: 0 continuous, 9363 integer (9363 binary)
Coefficient statistics:
  Matrix range     [1e+00, 3e+02]
  Objective range  [2e+02, 2e+06]
  Bounds range     [1e+00, 1e+00]
  RHS range        [1e+00, 1e+00]
Presolve removed 402 rows and 1003 columns
Presolve time: 0.08s
Presolved: 1148 rows, 8360 columns, 56008 nonzeros
Variable types: 0 continuous, 8360 integer (8352 binary)

Root relaxation: objective 8.319078e+04, 1206 iterations, 0.03 seconds (0.06 work units)

    Nodes    |    Current Node    |     Objective Bounds      |     Work
 Expl Unexpl |  Obj  Depth IntInf | Incumbent    BestBd   Gap | It/Node Time

     0     0 83190.7831    0   94          - 83190.7831      -     -    0s
H    0     0                    4331480.0000 83451.0187  98.1%     -    0s
H    0     0                    3285296.0000 83451.0187  97.5%     -    0s
H    0     0                    2981644.0000 83451.0187  97.2%     -    0s
     0     0 83767.4859    0  160 2981644.00 83767.4859  97.2%     -    0s
H    0     0                    732836.00000 83767.4859  88.6%     -    0s
H    0     0                    714240.00000 83767.4859  88.3%     -    0s
     0     0 83767.4859    0  160 714240.000 83767.4859  88.3%     -    0s
H    0     0                    714224.00000 83887.8118  88.3%     -    0s
H    0     0                    709036.00000 83887.8118  88.2%     -    0s
     0     0 83887.8118    0  159 709036.000 83887.8118  88.2%     -    0s
H    0     0                    709020.00000 83887.8118  88.2%     -    0s
     0     0 83901.9017    0  157 709020.000 83901.9017  88.2%     -    0s
     0     0 83901.9414    0  158 709020.000 83901.9414  88.2%     -    0s
H    0     0                    709004.00000 83964.5605  88.2%     -    0s
     0     0 84091.6910    0  163 709004.000 84091.6910  88.1%     -    0s
     0     0 84163.8519    0  169 709004.000 84163.8519  88.1%     -    0s
H    0     0                    131880.00000 84175.1284  36.2%     -    0s
     0     0 84175.1284    0  171 131880.000 84175.1284  36.2%     -    0s
H    0     0                    129860.00000 84175.1284  35.2%     -    0s
     0     0 84175.1284    0  172 129860.000 84175.1284  35.2%     -    0s
H    0     0                    99172.000000 84175.1284  15.1%     -    0s
H    0     0                    99140.000000 84175.1284  15.1%     -    0s
     0     0 84600.5706    0  179 99140.0000 84600.5706  14.7%     -    0s
     0     0 84600.5706    0   92 99140.0000 84600.5706  14.7%     -    0s
H    0     0                    98148.000000 84600.5706  13.8%     -    1s
H    0     0                    97784.000000 84600.5706  13.5%     -    1s
     0     0 84600.5706    0  174 97784.0000 84600.5706  13.5%     -    1s
H    0     0                    97780.000000 84600.5706  13.5%     -    1s
H    0     0                    97764.000000 84600.5706  13.5%     -    1s
     0     0 84660.5344    0  159 97764.0000 84660.5344  13.4%     -    1s
     0     0 84681.6122    0  174 97764.0000 84681.6122  13.4%     -    1s
     0     0 84681.6122    0  176 97764.0000 84681.6122  13.4%     -    1s
     0     0 84759.3148    0  159 97764.0000 84759.3148  13.3%     -    1s
     0     0 84761.1284    0  173 97764.0000 84761.1284  13.3%     -    1s
     0     0 84764.6379    0  157 97764.0000 84764.6379  13.3%     -    1s
     0     0 85311.3704    0  165 97764.0000 85311.3704  12.7%     -    1s
     0     0 85387.2592    0  186 97764.0000 85387.2592  12.7%     -    1s
     0     0 85417.0614    0  185 97764.0000 85417.0614  12.6%     -    1s
     0     0 85417.5545    0  180 97764.0000 85417.5545  12.6%     -    1s
H    0     0                    92148.000000 85417.5545  7.30%     -    1s
     0     0 85818.0539    0  190 92148.0000 85818.0539  6.87%     -    1s
     0     0 86313.7021    0  195 92148.0000 86313.7021  6.33%     -    1s
     0     0 86408.5963    0  201 92148.0000 86408.5963  6.23%     -    1s
     0     0 86451.3258    0  213 92148.0000 86451.3258  6.18%     -    1s
     0     0 86451.3258    0  215 92148.0000 86451.3258  6.18%     -    1s
     0     0 86843.6569    0  206 92148.0000 86843.6569  5.76%     -    1s
     0     0 86983.4028    0  190 92148.0000 86983.4028  5.60%     -    1s
     0     0 87003.2539    0  190 92148.0000 87003.2539  5.58%     -    1s
     0     0 87011.7645    0  194 92148.0000 87011.7645  5.57%     -    1s
     0     0 87012.2150    0  191 92148.0000 87012.2150  5.57%     -    1s
     0     0 87270.6062    0  217 92148.0000 87270.6062  5.29%     -    1s
H    0     0                    91656.000000 87270.6062  4.78%     -    1s
     0     0 87314.0862    0  190 91656.0000 87314.0862  4.74%     -    1s
     0     0 87320.1143    0  199 91656.0000 87320.1143  4.73%     -    1s
     0     0 87320.9655    0  188 91656.0000 87320.9655  4.73%     -    1s
     0     0 87394.8924    0  212 91656.0000 87394.8924  4.65%     -    1s
H    0     0                    91648.000000 87394.8924  4.64%     -    1s
     0     0 87409.0975    0  218 91648.0000 87409.0975  4.63%     -    1s
     0     0 87410.2097    0  227 91648.0000 87410.2097  4.62%     -    1s
     0     0 87457.7845    0  216 91648.0000 87457.7845  4.57%     -    1s
     0     0 87463.0636    0  214 91648.0000 87463.0636  4.57%     -    1s
     0     0 87465.8957    0  231 91648.0000 87465.8957  4.56%     -    1s
     0     0 87500.4234    0  221 91648.0000 87500.4234  4.53%     -    1s
     0     0 87503.1774    0  226 91648.0000 87503.1774  4.52%     -    1s
     0     0 87513.2587    0  232 91648.0000 87513.2587  4.51%     -    1s
     0     0 87513.5445    0  217 91648.0000 87513.5445  4.51%     -    1s
     0     0 87544.4387    0   92 91648.0000 87544.4387  4.48%     -    1s
H    0     0                    91640.000000 87544.4387  4.47%     -    1s
     0     0 87544.4387    0  158 91640.0000 87544.4387  4.47%     -    1s
     0     0 87544.4387    0  187 91640.0000 87544.4387  4.47%     -    1s
     0     0 87544.4387    0  178 91640.0000 87544.4387  4.47%     -    1s
     0     0 87544.4387    0  196 91640.0000 87544.4387  4.47%     -    1s
     0     0 87544.4387    0  202 91640.0000 87544.4387  4.47%     -    1s
     0     0 87544.4387    0  202 91640.0000 87544.4387  4.47%     -    1s
     0     0 87544.4387    0  209 91640.0000 87544.4387  4.47%     -    1s
     0     0 87545.2318    0  208 91640.0000 87545.2318  4.47%     -    1s
     0     0 87570.7067    0  229 91640.0000 87570.7067  4.44%     -    1s
     0     0 87570.7067    0  232 91640.0000 87570.7067  4.44%     -    1s
     0     0 87835.4267    0  211 91640.0000 87835.4267  4.15%     -    1s
     0     0 87873.4124    0  209 91640.0000 87873.4124  4.11%     -    1s
     0     0 87884.0843    0  218 91640.0000 87884.0843  4.10%     -    1s
     0     0 87890.3760    0  217 91640.0000 87890.3760  4.09%     -    1s
     0     0 87890.3760    0  217 91640.0000 87890.3760  4.09%     -    1s
     0     0 87966.9298    0  206 91640.0000 87966.9298  4.01%     -    1s
     0     0 87973.6904    0  214 91640.0000 87973.6904  4.00%     -    1s
     0     0 87974.7325    0  215 91640.0000 87974.7325  4.00%     -    1s
     0     0 87978.3261    0  206 91640.0000 87978.3261  4.00%     -    1s
     0     0 87978.3261    0  186 91640.0000 87978.3261  4.00%     -    1s
H    0     0                    90396.000000 87984.5229  2.67%     -    1s
H    0     2                    90388.000000 87984.5229  2.66%     -    1s
     0     2 87984.5229    0  186 90388.0000 87984.5229  2.66%     -    1s
H    4     6                    89116.000000 88146.0969  1.09%   156    1s

Cutting planes:
  Gomory: 3
  Cover: 6
  Clique: 66
  MIR: 34
  StrongCG: 9
  GUB cover: 60
  Zero half: 13
  RLT: 11
  Relax-and-lift: 1

Explored 28 nodes (15669 simplex iterations) in 2.02 seconds (2.41 work units)
Thread count was 8 (of 8 available processors)

Solution count 10: 89116 90388 90396 ... 97784

Optimal solution found (tolerance 1.00e-04)
Best objective 8.911600000000e+04, best bound 8.911600000000e+04, gap 0.0000%

Gurobi 9.5.2 (mac64[arm]) logging started Mon May  1 23:03:31 2023

Set parameter LogFile to value "Java/output/special_iterative/scenario_seed_2_nJob_50_machineCount_2/mip_increment_2/log.txt"
Gurobi Optimizer version 9.5.2 build v9.5.2rc0 (mac64[arm])
Thread count: 8 physical cores, 8 logical processors, using up to 8 threads
Optimize a model with 1560 rows, 7433 columns and 54341 nonzeros
Model fingerprint: 0xa482ef9b
Variable types: 0 continuous, 7433 integer (7433 binary)
Coefficient statistics:
  Matrix range     [1e+00, 3e+02]
  Objective range  [1e+02, 4e+05]
  Bounds range     [1e+00, 1e+00]
  RHS range        [1e+00, 1e+00]
Presolve removed 735 rows and 1167 columns
Presolve time: 0.07s
Presolved: 825 rows, 6266 columns, 45266 nonzeros
Variable types: 0 continuous, 6266 integer (6262 binary)

Root relaxation: objective 4.622977e+05, 2144 iterations, 0.06 seconds (0.11 work units)

    Nodes    |    Current Node    |     Objective Bounds      |     Work
 Expl Unexpl |  Obj  Depth IntInf | Incumbent    BestBd   Gap | It/Node Time

     0     0 462297.694    0  149          - 462297.694      -     -    0s
     0     0 465088.364    0  208          - 465088.364      -     -    0s
     0     0 465092.725    0  215          - 465092.725      -     -    0s
     0     0 466095.613    0  227          - 466095.613      -     -    0s
H    0     0                    1381187.0000 466095.613  66.3%     -    0s
H    0     0                    1240820.0000 466095.613  62.4%     -    0s
H    0     0                    540619.00000 466392.746  13.7%     -    0s
H    0     0                    497975.00000 466392.746  6.34%     -    0s
     0     0 466392.746    0  205 497975.000 466392.746  6.34%     -    0s
     0     0 466523.720    0  191 497975.000 466523.720  6.32%     -    0s
     0     0 466613.804    0  208 497975.000 466613.804  6.30%     -    0s
     0     0 466614.507    0  211 497975.000 466614.507  6.30%     -    0s
H    0     0                    492121.00000 467735.631  4.96%     -    0s
     0     0 467735.631    0  263 492121.000 467735.631  4.96%     -    0s
H    0     0                    489957.00000 467735.631  4.54%     -    0s
     0     0 468163.206    0  269 489957.000 468163.206  4.45%     -    0s
     0     0 468452.703    0  281 489957.000 468452.703  4.39%     -    0s
     0     0 468494.969    0  294 489957.000 468494.969  4.38%     -    0s
     0     0 468503.543    0  302 489957.000 468503.543  4.38%     -    0s
     0     0 468508.707    0  294 489957.000 468508.707  4.38%     -    0s
     0     0 468509.089    0  299 489957.000 468509.089  4.38%     -    0s
     0     0 469391.927    0  271 489957.000 469391.927  4.20%     -    1s
     0     0 469391.927    0  145 489957.000 469391.927  4.20%     -    1s
H    0     0                    489521.00000 469391.927  4.11%     -    1s
     0     0 469391.927    0  219 489521.000 469391.927  4.11%     -    1s
     0     0 469391.927    0  227 489521.000 469391.927  4.11%     -    1s
     0     0 469391.927    0  286 489521.000 469391.927  4.11%     -    1s
     0     0 469391.927    0  282 489521.000 469391.927  4.11%     -    1s
     0     0 469391.927    0  285 489521.000 469391.927  4.11%     -    1s
     0     0 469393.405    0  288 489521.000 469393.405  4.11%     -    1s
     0     0 469393.972    0  286 489521.000 469393.972  4.11%     -    1s
     0     0 470168.776    0  267 489521.000 470168.776  3.95%     -    1s
     0     0 470358.983    0  279 489521.000 470358.983  3.91%     -    1s
     0     0 470379.616    0  282 489521.000 470379.616  3.91%     -    1s
     0     0 470387.071    0  292 489521.000 470387.071  3.91%     -    1s
     0     0 470388.484    0  289 489521.000 470388.484  3.91%     -    1s
     0     0 470857.239    0  291 489521.000 470857.239  3.81%     -    1s
H    0     0                    480256.00000 470857.239  1.96%     -    1s
     0     0 470986.751    0  310 480256.000 470986.751  1.93%     -    1s
     0     0 471016.685    0  313 480256.000 471016.685  1.92%     -    1s
     0     0 471030.330    0  330 480256.000 471030.330  1.92%     -    1s
     0     0 471032.427    0  332 480256.000 471032.427  1.92%     -    1s
     0     0 471180.775    0  341 480256.000 471180.775  1.89%     -    2s
H    0     0                    475350.00000 471180.775  0.88%     -    2s
     0     0 471219.129    0  326 475350.000 471219.129  0.87%     -    2s
     0     0 471227.607    0  337 475350.000 471227.607  0.87%     -    2s
     0     0 471229.827    0  338 475350.000 471229.827  0.87%     -    2s
     0     0 471290.768    0  337 475350.000 471290.768  0.85%     -    2s
     0     0 471290.768    0  131 475350.000 471290.768  0.85%     -    2s
     0     0 471290.768    0  218 475350.000 471290.768  0.85%     -    2s
     0     0 471290.768    0  258 475350.000 471290.768  0.85%     -    2s
     0     0 471290.768    0  291 475350.000 471290.768  0.85%     -    2s
     0     0 471290.768    0  314 475350.000 471290.768  0.85%     -    2s
     0     0 471325.006    0  345 475350.000 471325.006  0.85%     -    2s
     0     0 471342.031    0  325 475350.000 471342.031  0.84%     -    2s
     0     0 471344.653    0  353 475350.000 471344.653  0.84%     -    2s
     0     0 471344.653    0  353 475350.000 471344.653  0.84%     -    2s
     0     0 471428.727    0  327 475350.000 471428.727  0.82%     -    2s
     0     0 471442.268    0  336 475350.000 471442.268  0.82%     -    2s
     0     0 471445.570    0  330 475350.000 471445.570  0.82%     -    2s
     0     0 471495.326    0  320 475350.000 471495.326  0.81%     -    2s
     0     0 471495.326    0  304 475350.000 471495.326  0.81%     -    2s
     0     2 471507.609    0  304 475350.000 471507.609  0.81%     -    2s

Cutting planes:
  Gomory: 1
  Cover: 4
  Clique: 42
  MIR: 81
  StrongCG: 29
  GUB cover: 69
  Zero half: 9
  Mod-K: 4
  RLT: 5
  Relax-and-lift: 2

Explored 225 nodes (69133 simplex iterations) in 3.46 seconds (5.69 work units)
Thread count was 8 (of 8 available processors)

Solution count 9: 475350 480256 489521 ... 1.38119e+06

Optimal solution found (tolerance 1.00e-04)
Best objective 4.753500000000e+05, best bound 4.753500000000e+05, gap 0.0000%

Gurobi 9.5.2 (mac64[arm]) logging started Mon May  1 23:03:35 2023

Set parameter LogFile to value "Java/output/special_iterative/scenario_seed_2_nJob_50_machineCount_2/mip_increment_2/log.txt"
Gurobi Optimizer version 9.5.2 build v9.5.2rc0 (mac64[arm])
Thread count: 8 physical cores, 8 logical processors, using up to 8 threads
Optimize a model with 3176 rows, 75330 columns and 863098 nonzeros
Model fingerprint: 0xb71d23f1
Variable types: 0 continuous, 75330 integer (75330 binary)
Coefficient statistics:
  Matrix range     [1e+00, 3e+02]
  Objective range  [3e+00, 5e+06]
  Bounds range     [1e+00, 1e+00]
  RHS range        [1e+00, 1e+00]

Warning: Completing partial solution with 75175 unfixed non-continuous variables out of 75330
User MIP start produced solution with objective 400054 (0.06s)
Loaded user MIP start with objective 400054

Presolve removed 96 rows and 6644 columns
Presolve time: 0.95s
Presolved: 3080 rows, 68686 columns, 790475 nonzeros
Variable types: 0 continuous, 68686 integer (68684 binary)
Found heuristic solution: objective 397224.00000

Root simplex log...

Iteration    Objective       Primal Inf.    Dual Inf.      Time
   22348    1.8929084e+04   2.414446e+06   0.000000e+00      5s
   41270    1.9520062e+04   2.699486e+04   0.000000e+00     10s
   52976    1.9558694e+04   7.457520e+02   0.000000e+00     15s
   53451    1.9558761e+04   0.000000e+00   0.000000e+00     15s

Root relaxation: objective 1.955876e+04, 53451 iterations, 14.18 seconds (37.82 work units)

    Nodes    |    Current Node    |     Objective Bounds      |     Work
 Expl Unexpl |  Obj  Depth IntInf | Incumbent    BestBd   Gap | It/Node Time

     0     0 19558.7613    0  672 397224.000 19558.7613  95.1%     -   16s
H    0     0                    396137.00000 19558.7613  95.1%     -   16s
H    0     0                    378543.00000 19558.7613  94.8%     -   16s
H    0     0                    376365.00000 19558.7613  94.8%     -   17s
H    0     0                    338791.00000 19606.5888  94.2%     -   25s
H    0     0                    338772.00000 19606.5888  94.2%     -   25s
H    0     0                    338602.99996 19606.5888  94.2%     -   25s
H    0     0                    338132.00000 19606.5888  94.2%     -   25s
H    0     0                    328838.00000 19606.5888  94.0%     -   25s
H    0     0                    320706.00000 19606.5888  93.9%     -   25s
H    0     0                    314045.00000 19606.5888  93.8%     -   25s
     0     0 19606.5888    0  819 314045.000 19606.5888  93.8%     -   25s
H    0     0                    277858.00000 19606.5888  92.9%     -   25s
H    0     0                    220455.00000 19606.5888  91.1%     -   29s
     0     0 19612.2006    0  851 220455.000 19612.2006  91.1%     -   34s
     0     0 19613.0594    0  852 220455.000 19613.0594  91.1%     -   38s
     0     0 19613.0627    0  863 220455.000 19613.0627  91.1%     -   39s
H    0     0                    209691.00000 19621.9768  90.6%     -   48s
H    0     0                    209132.00000 19621.9768  90.6%     -   48s
     0     0 19621.9768    0  933 209132.000 19621.9768  90.6%     -   49s
H    0     0                    209131.00000 19621.9768  90.6%     -   49s
H    0     0                    209130.00000 19621.9768  90.6%     -   49s
H    0     0                    209003.00000 19621.9768  90.6%     -   49s
H    0     0                    193565.00000 19623.2732  89.9%     -   55s
     0     0 19623.2732    0  927 193565.000 19623.2732  89.9%     -   56s
     0     0 19623.3186    0  938 193565.000 19623.3186  89.9%     -   59s
     0     0 19623.3186    0  926 193565.000 19623.3186  89.9%     -   59s
H    0     0                    144751.00000 19665.2962  86.4%     -   71s
     0     0 19665.2962    0  949 144751.000 19665.2962  86.4%     -   71s
H    0     0                    144356.00000 19665.2962  86.4%     -   71s
H    0     0                    143986.00000 19665.2962  86.3%     -   71s
H    0     0                    143918.00000 19665.2962  86.3%     -   72s
     0     0 19673.2662    0  979 143918.000 19673.2662  86.3%     -   78s
     0     0 19673.8437    0  991 143918.000 19673.8437  86.3%     -   80s
     0     0 19673.9601    0 1004 143918.000 19673.9601  86.3%     -   80s
     0     0 19673.9713    0 1005 143918.000 19673.9713  86.3%     -   81s
H    0     0                    112021.00000 19698.8647  82.4%     -   89s
     0     0 19698.8647    0 1062 112021.000 19698.8647  82.4%     -   89s
H    0     0                    110956.00000 19698.8647  82.2%     -   89s
H    0     0                    110925.00000 19698.8647  82.2%     -   89s
H    0     0                    106461.00000 19698.8647  81.5%     -   89s
     0     0 19703.0343    0 1114 106461.000 19703.0343  81.5%     -   95s
     0     0 19703.4097    0 1115 106461.000 19703.4097  81.5%     -   96s
     0     0 19703.4395    0 1114 106461.000 19703.4395  81.5%     -   96s
     0     0 19732.8464    0 1112 106461.000 19732.8464  81.5%     -  103s
H    0     0                    103361.00000 19732.8464  80.9%     -  112s
     0     0 19747.8294    0 1154 103361.000 19747.8294  80.9%     -  119s
     0     0 19749.5558    0 1161 103361.000 19749.5558  80.9%     -  120s
     0     0 19750.0580    0 1136 103361.000 19750.0580  80.9%     -  121s
     0     0 19750.3756    0 1160 103361.000 19750.3756  80.9%     -  122s
     0     0 19750.4002    0 1159 103361.000 19750.4002  80.9%     -  122s
     0     0 19778.5491    0 1117 103361.000 19778.5491  80.9%     -  132s
H    0     0                    101228.00000 19778.5491  80.5%     -  132s
H    0     0                    99775.000000 19778.5491  80.2%     -  133s
     0     0 19785.5177    0 1187 99775.0000 19785.5177  80.2%     -  137s
     0     0 19790.3888    0 1202 99775.0000 19790.3888  80.2%     -  141s
     0     0 19790.6651    0 1208 99775.0000 19790.6651  80.2%     -  142s
     0     0 19790.6876    0 1218 99775.0000 19790.6876  80.2%     -  142s
     0     0 19809.2239    0 1201 99775.0000 19809.2239  80.1%     -  151s
H    0     0                    99770.000000 19809.2239  80.1%     -  165s
H    0     0                    87063.000000 19821.7561  77.2%     -  170s
     0     0 19821.7561    0 1195 87063.0000 19821.7561  77.2%     -  170s
     0     0 19825.9590    0 1253 87063.0000 19825.9590  77.2%     -  175s
     0     0 19827.8236    0 1234 87063.0000 19827.8236  77.2%     -  178s
     0     0 19828.1222    0 1259 87063.0000 19828.1222  77.2%     -  180s
     0     0 19828.1454    0 1259 87063.0000 19828.1454  77.2%     -  180s
     0     0 19843.0599    0 1242 87063.0000 19843.0599  77.2%     -  187s
H    0     0                    85950.000000 19843.0599  76.9%     -  187s
H    0     0                    82153.000000 19843.0599  75.8%     -  187s
H    0     0                    81185.000000 19843.0599  75.6%     -  187s
     0     0 19865.1895    0 1209 81185.0000 19865.1895  75.5%     -  196s
     0     0 19868.3167    0 1230 81185.0000 19868.3167  75.5%     -  199s
     0     0 19868.5719    0 1220 81185.0000 19868.5719  75.5%     -  199s
     0     0 19868.6077    0 1220 81185.0000 19868.6077  75.5%     -  200s
     0     0 19895.6943    0 1250 81185.0000 19895.6943  75.5%     -  207s
H    0     0                    81089.000000 19895.6943  75.5%     -  208s
     0     0 19901.4955    0 1245 81089.0000 19901.4955  75.5%     -  212s
     0     0 19905.9944    0 1284 81089.0000 19905.9944  75.5%     -  215s
     0     0 19907.1915    0 1283 81089.0000 19907.1915  75.5%     -  217s
     0     0 19907.7132    0 1296 81089.0000 19907.7132  75.4%     -  218s
     0     0 19908.0348    0 1306 81089.0000 19908.0348  75.4%     -  219s
     0     0 19908.1174    0 1319 81089.0000 19908.1174  75.4%     -  219s
H    0     0                    80059.000000 19927.5553  75.1%     -  227s
H    0     0                    66569.000000 19927.5553  70.1%     -  227s
     0     0 19927.5553    0 1271 66569.0000 19927.5553  70.1%     -  227s
H    0     0                    66549.000000 19927.5553  70.1%     -  227s
     0     0 19930.7119    0 1307 66549.0000 19930.7119  70.1%     -  230s
H    0     0                    55006.000000 19933.4706  63.8%     -  233s
     0     0 19933.4706    0 1317 55006.0000 19933.4706  63.8%     -  233s
     0     0 19934.0513    0 1319 55006.0000 19934.0513  63.8%     -  234s
     0     0 19934.1844    0 1325 55006.0000 19934.1844  63.8%     -  235s
     0     0 19966.2547    0 1235 55006.0000 19966.2547  63.7%     -  241s
     0     0 19966.2547    0  655 55006.0000 19966.2547  63.7%     -  254s
H    0     0                    54311.000000 19966.2547  63.2%     -  254s
H    0     0                    54262.000000 19966.2547  63.2%     -  254s
     0     0 19966.2547    0  828 54262.0000 19966.2547  63.2%     -  261s
H    0     0                    54257.000000 19966.2547  63.2%     -  261s
     0     0 19966.2547    0  963 54257.0000 19966.2547  63.2%     -  273s
     0     0 19966.2547    0  993 54257.0000 19966.2547  63.2%     -  280s
H    0     0                    54189.000000 19966.2547  63.2%     -  287s
     0     0 19966.2547    0 1076 54189.0000 19966.2547  63.2%     -  287s
     0     0 19973.9741    0 1160 54189.0000 19973.9741  63.1%     -  293s
     0     0 19994.6073    0 1185 54189.0000 19994.6073  63.1%     -  297s
     0     0 19997.1434    0 1215 54189.0000 19997.1434  63.1%     -  299s
     0     0 19997.2466    0 1222 54189.0000 19997.2466  63.1%     -  299s
     0     0 19997.2476    0 1219 54189.0000 19997.2476  63.1%     -  299s
H    0     0                    54173.000000 19997.2476  63.1%     -  305s
     0     0 20037.6270    0 1235 54173.0000 20037.6270  63.0%     -  305s
     0     0 20057.6124    0 1247 54173.0000 20057.6124  63.0%     -  310s
     0     0 20063.1250    0 1272 54173.0000 20063.1250  63.0%     -  313s
     0     0 20064.3029    0 1254 54173.0000 20064.3029  63.0%     -  314s
     0     0 20064.4867    0 1251 54173.0000 20064.4867  63.0%     -  314s
     0     0 20122.2418    0 1270 54173.0000 20122.2418  62.9%     -  320s
H    0     0                    53474.000000 20122.2418  62.4%     -  322s
     0     0 20143.9401    0 1303 53474.0000 20143.9401  62.3%     -  327s
     0     0 20153.0787    0 1322 53474.0000 20153.0787  62.3%     -  331s
     0     0 20156.4007    0 1331 53474.0000 20156.4007  62.3%     -  333s
     0     0 20157.3265    0 1328 53474.0000 20157.3265  62.3%     -  334s
     0     0 20157.3575    0 1344 53474.0000 20157.3575  62.3%     -  335s
     0     0 20185.2956    0 1337 53474.0000 20185.2956  62.3%     -  339s
H    0     0                    53458.000000 20185.2956  62.2%     -  339s
H    0     0                    53402.000000 20185.2956  62.2%     -  339s
     0     0 20191.8374    0 1326 53402.0000 20191.8374  62.2%     -  342s
     0     0 20199.5279    0 1337 53402.0000 20199.5279  62.2%     -  346s
     0     0 20201.8175    0 1366 53402.0000 20201.8175  62.2%     -  348s
     0     0 20202.4885    0 1376 53402.0000 20202.4885  62.2%     -  349s
     0     0 20202.5742    0 1346 53402.0000 20202.5742  62.2%     -  349s
     0     0 20249.4943    0 1382 53402.0000 20249.4943  62.1%     -  355s
     0     0 20257.1904    0 1382 53402.0000 20257.1904  62.1%     -  362s
     0     0 20261.4009    0 1403 53402.0000 20261.4009  62.1%     -  367s
     0     0 20263.2217    0 1425 53402.0000 20263.2217  62.1%     -  369s
     0     0 20263.8662    0 1460 53402.0000 20263.8662  62.1%     -  370s
     0     0 20264.1373    0 1486 53402.0000 20264.1373  62.1%     -  370s
     0     0 20302.3915    0 1441 53402.0000 20302.3915  62.0%     -  377s
H    0     0                    53375.000000 20302.3915  62.0%     -  377s
     0     0 20305.5335    0 1444 53375.0000 20305.5335  62.0%     -  380s
     0     0 20334.3222    0 1459 53375.0000 20334.3222  61.9%     -  389s
     0     0 20336.5425    0 1467 53375.0000 20336.5425  61.9%     -  391s
     0     0 20339.3537    0 1479 53375.0000 20339.3537  61.9%     -  393s
     0     0 20340.4004    0 1505 53375.0000 20340.4004  61.9%     -  395s
     0     0 20340.7786    0 1542 53375.0000 20340.7786  61.9%     -  396s
H    0     0                    52096.000000 20340.7786  61.0%     -  399s
     0     0 20350.7185    0 1518 52096.0000 20350.7185  60.9%     -  399s
H    0     0                    51854.000000 20350.7185  60.8%     -  399s
     0     0 20356.9694    0 1522 51854.0000 20356.9694  60.7%     -  417s
H    0     0                    47389.000000 20356.9694  57.0%     -  421s
     0     0 20364.1798    0 1522 47389.0000 20364.1798  57.0%     -  421s
H    0     0                    46806.000000 20364.1798  56.5%     -  425s
     0     0 20367.7593    0 1525 46806.0000 20367.7593  56.5%     -  425s
     0     0 20370.5786    0 1543 46806.0000 20370.5786  56.5%     -  428s
     0     0 20371.2481    0 1566 46806.0000 20371.2481  56.5%     -  429s
     0     0 20371.3363    0 1569 46806.0000 20371.3363  56.5%     -  429s
     0     0 20392.0985    0 1539 46806.0000 20392.0985  56.4%     -  435s
H    0     0                    46726.000000 20392.0985  56.4%     -  435s
     0     0 20400.3366    0 1541 46726.0000 20400.3366  56.3%     -  440s
     0     0 20402.8510    0 1538 46726.0000 20402.8510  56.3%     -  443s
     0     0 20404.9429    0 1544 46726.0000 20404.9429  56.3%     -  445s
     0     0 20406.4029    0 1577 46726.0000 20406.4029  56.3%     -  448s
     0     0 20407.6494    0 1589 46726.0000 20407.6494  56.3%     -  450s
     0     0 20407.8376    0 1597 46726.0000 20407.8376  56.3%     -  451s
     0     0 20467.5026    0 1559 46726.0000 20467.5026  56.2%     -  457s
H    0     0                    45376.000000 20467.5026  54.9%     -  472s
     0     0 20477.0853    0 1579 45376.0000 20477.0853  54.9%     -  472s
     0     0 20482.5513    0 1586 45376.0000 20482.5513  54.9%     -  476s
     0     0 20484.5651    0 1603 45376.0000 20484.5651  54.9%     -  478s
     0     0 20491.8811    0 1608 45376.0000 20491.8811  54.8%     -  485s
     0     0 20492.7152    0 1631 45376.0000 20492.7152  54.8%     -  487s
     0     0 20493.2438    0 1651 45376.0000 20493.2438  54.8%     -  488s
     0     0 20515.9980    0 1592 45376.0000 20515.9980  54.8%     -  497s
     0     0 20520.6926    0 1639 45376.0000 20520.6926  54.8%     -  502s
     0     0 20522.2636    0 1664 45376.0000 20522.2636  54.8%     -  505s
     0     0 20524.4867    0 1659 45376.0000 20524.4867  54.8%     -  508s
     0     0 20525.4232    0 1673 45376.0000 20525.4232  54.8%     -  509s
     0     0 20527.2201    0 1700 45376.0000 20527.2201  54.8%     -  512s
     0     0 20527.8115    0 1711 45376.0000 20527.8115  54.8%     -  513s
     0     0 20562.1240    0 1661 45376.0000 20562.1240  54.7%     -  522s
H    0     0                    43229.000000 20562.1240  52.4%     -  526s
     0     0 20566.9142    0 1671 43229.0000 20566.9142  52.4%     -  526s
     0     0 20567.7754    0 1698 43229.0000 20567.7754  52.4%     -  528s
     0     0 20581.4754    0 1679 43229.0000 20581.4754  52.4%     -  534s
H    0     0                    43219.000000 20581.4754  52.4%     -  534s
H    0     0                    43188.000000 20581.4754  52.3%     -  534s
H    0     0                    42788.000000 20581.4754  51.9%     -  534s
     0     0 20583.6823    0 1686 42788.0000 20583.6823  51.9%     -  537s
     0     0 20585.2867    0 1732 42788.0000 20585.2867  51.9%     -  541s
H    0     0                    42447.000000 20585.2867  51.5%     -  544s
     0     0 20586.6054    0 1722 42447.0000 20586.6054  51.5%     -  544s
     0     0 20590.6049    0 1703 42447.0000 20590.6049  51.5%     -  547s
H    0     0                    42431.000000 20590.6049  51.5%     -  549s
     0     0 20591.0674    0 1706 42431.0000 20591.0674  51.5%     -  549s
     0     0 20601.1240    0 1705 42431.0000 20601.1240  51.4%     -  557s
H    0     0                    42352.000000 20601.1240  51.4%     -  592s

Cutting planes:
  Cover: 1
  Clique: 171
  MIR: 374
  StrongCG: 215
  GUB cover: 288

Explored 1 nodes (769764 simplex iterations) in 592.02 seconds (1490.67 work units)
Thread count was 8 (of 8 available processors)

Solution count 10: 42352 42431 42447 ... 46806

Time limit reached
Best objective 4.235200000000e+04, best bound 2.060200000000e+04, gap 51.3553%
